Minimize
  - 18 y_0 - 23 y_2 - 15 y_3 - 28 y_4 - 23 y_5 - 13 y_6 - 19 y_7 - 19 y_8
   - 27 y_9 - 13 y_10 - 22 y_11 - 6 y_12 - 19 y_13 - 21 y_14 - 18 y_15
   - 16 y_16 - 27 y_17 - 20 y_18 - 7 y_19 + 91 x_0_2 + 53 x_0_4 + 21 x_0_6
   + 44 x_0_11 + 75 x_0_12 + 7 x_0_13 + 14 x_0_14 + 44 x_0_15 + 68 x_0_17
   + 92 x_1_2 + 61 x_1_3 + 112 x_1_4 + 52 x_1_6 + 76 x_1_7 + 77 x_1_8
   + 72 x_1_15 + 63 x_1_16 + 27 x_1_19 + 31 x_2_3 + 79 x_2_4 + 11 x_2_5
   + 79 x_2_6 + 82 x_2_7 + 27 x_2_8 + 109 x_2_10 + 68 x_2_12 + 103 x_2_14
   + 48 x_2_16 + 79 x_2_18 + 83 x_3_4 + 58 x_3_6 + 85 x_3_10 + 38 x_3_12
   + 82 x_3_13 + 89 x_3_14 + 38 x_3_15 + 68 x_4_5 + 41 x_4_7 + 57 x_4_8
   + 6 x_4_9 + 104 x_4_12 + 56 x_4_14 + 54 x_4_16 + 31 x_4_17 + 88 x_4_19
   + 74 x_5_6 + 74 x_5_7 + 21 x_5_8 + 65 x_5_9 + 72 x_5_12 + 90 x_5_13
   + 96 x_5_14 + 40 x_5_15 + 42 x_5_16 + 40 x_5_17 + 71 x_5_18 + 83 x_5_19
   + 25 x_6_7 + 53 x_6_8 + 32 x_6_10 + 54 x_6_12 + 27 x_6_13 + 69 x_6_17
   + 26 x_6_19 + 22 x_7_14 + 35 x_7_15 + 50 x_7_19 + 53 x_8_9 + 59 x_8_12
   + 76 x_8_14 + 22 x_8_16 + 64 x_8_19 + 24 x_9_11 + 51 x_9_14 + 48 x_9_16
   + 29 x_9_18 + 68 x_10_12 + 67 x_10_15 + 53 x_10_18 + 32 x_10_19
   + 54 x_11_14 + 17 x_11_15 + 25 x_11_16 + 80 x_12_13 + 88 x_12_14
   + 8 x_13_14 + 57 x_14_15 + 76 x_14_17 + 56 x_14_19 + 37 x_15_17
   + 33 x_15_18 + 45 x_16_17 + 45 x_16_19 + 89 x_17_19 + 30 x_18_6
   + 354 Constant
Subject To
 c_0: y_17 = 1
 c_1_0: y_0 + y_13 >= 1
 c_1_1: y_1 >= 1
 c_1_2: y_2 >= 1
 c_1_3: y_3 >= 1
 c_1_4: y_4 + y_9 >= 1
 c_1_5: y_5 >= 1
 c_1_6: y_6 >= 1
 c_1_7: y_7 + y_18 >= 1
 c_1_8: y_8 >= 1
 c_1_9: y_4 + y_9 >= 1
 c_1_10: y_10 >= 1
 c_1_11: y_11 >= 1
 c_1_12: y_12 >= 1
 c_1_13: y_0 + y_13 + y_14 >= 1
 c_1_14: y_13 + y_14 >= 1
 c_1_15: y_15 + y_16 >= 1
 c_1_16: y_15 + y_16 >= 1
 c_1_17: y_17 >= 1
 c_1_18: y_7 + y_18 >= 1
 c_1_19: y_19 >= 1
 c_2_0: - 2 y_0 + x_0_2 + x_0_4 + x_0_6 + x_0_11 + x_0_12 + x_0_13 + x_0_14
   + x_0_15 + x_0_17 = 0
 c_2_1: - 2 y_1 + x_1_2 + x_1_3 + x_1_4 + x_1_6 + x_1_7 + x_1_8 + x_1_15
   + x_1_16 + x_1_19 = 0
 c_2_2: - 2 y_2 + x_0_2 + x_1_2 + x_2_3 + x_2_4 + x_2_5 + x_2_6 + x_2_7
   + x_2_8 + x_2_10 + x_2_12 + x_2_14 + x_2_16 + x_2_18 = 0
 c_2_3: - 2 y_3 + x_1_3 + x_2_3 + x_3_4 + x_3_6 + x_3_10 + x_3_12 + x_3_13
   + x_3_14 + x_3_15 = 0
 c_2_4: - 2 y_4 + x_0_4 + x_1_4 + x_2_4 + x_3_4 + x_4_5 + x_4_7 + x_4_8
   + x_4_9 + x_4_12 + x_4_14 + x_4_16 + x_4_17 + x_4_19 = 0
 c_2_5: - 2 y_5 + x_2_5 + x_4_5 + x_5_6 + x_5_7 + x_5_8 + x_5_9 + x_5_12
   + x_5_13 + x_5_14 + x_5_15 + x_5_16 + x_5_17 + x_5_18 + x_5_19 = 0
 c_2_6: - 2 y_6 + x_0_6 + x_1_6 + x_2_6 + x_3_6 + x_5_6 + x_6_7 + x_6_8
   + x_6_10 + x_6_12 + x_6_13 + x_6_17 + x_6_19 + x_18_6 = 0
 c_2_7: - 2 y_7 + x_1_7 + x_2_7 + x_4_7 + x_5_7 + x_6_7 + x_7_14 + x_7_15
   + x_7_19 = 0
 c_2_8: - 2 y_8 + x_1_8 + x_2_8 + x_4_8 + x_5_8 + x_6_8 + x_8_9 + x_8_12
   + x_8_14 + x_8_16 + x_8_19 = 0
 c_2_9: - 2 y_9 + x_4_9 + x_5_9 + x_8_9 + x_9_11 + x_9_14 + x_9_16 + x_9_18
   = 0
 c_2_10: - 2 y_10 + x_2_10 + x_3_10 + x_6_10 + x_10_12 + x_10_15 + x_10_18
   + x_10_19 = 0
 c_2_11: - 2 y_11 + x_0_11 + x_9_11 + x_11_14 + x_11_15 + x_11_16 = 0
 c_2_12: - 2 y_12 + x_0_12 + x_2_12 + x_3_12 + x_4_12 + x_5_12 + x_6_12
   + x_8_12 + x_10_12 + x_12_13 + x_12_14 = 0
 c_2_13: - 2 y_13 + x_0_13 + x_3_13 + x_5_13 + x_6_13 + x_12_13 + x_13_14
   = 0
 c_2_14: - 2 y_14 + x_0_14 + x_2_14 + x_3_14 + x_4_14 + x_5_14 + x_7_14
   + x_8_14 + x_9_14 + x_11_14 + x_12_14 + x_13_14 + x_14_15 + x_14_17
   + x_14_19 = 0
 c_2_15: - 2 y_15 + x_0_15 + x_1_15 + x_3_15 + x_5_15 + x_7_15 + x_10_15
   + x_11_15 + x_14_15 + x_15_17 + x_15_18 = 0
 c_2_16: - 2 y_16 + x_1_16 + x_2_16 + x_4_16 + x_5_16 + x_8_16 + x_9_16
   + x_11_16 + x_16_17 + x_16_19 = 0
 c_2_17: - 2 y_17 + x_0_17 + x_4_17 + x_5_17 + x_6_17 + x_14_17 + x_15_17
   + x_16_17 + x_17_19 = 0
 c_2_18: - 2 y_18 + x_2_18 + x_5_18 + x_9_18 + x_10_18 + x_15_18 + x_18_6
   = 0
 c_2_19: - 2 y_19 + x_1_19 + x_4_19 + x_5_19 + x_6_19 + x_7_19 + x_8_19
   + x_10_19 + x_14_19 + x_16_19 + x_17_19 = 0
Bounds
 Constant = 1
Binaries
 y_0 y_1 y_2 y_3 y_4 y_5 y_6 y_7 y_8 y_9 y_10 y_11 y_12 y_13 y_14 y_15 y_16
 y_17 y_18 y_19 x_0_2 x_0_4 x_0_6 x_0_11 x_0_12 x_0_13 x_0_14 x_0_15 x_0_17
 x_1_2 x_1_3 x_1_4 x_1_6 x_1_7 x_1_8 x_1_15 x_1_16 x_1_19 x_2_3 x_2_4 x_2_5
 x_2_6 x_2_7 x_2_8 x_2_10 x_2_12 x_2_14 x_2_16 x_2_18 x_3_4 x_3_6 x_3_10
 x_3_12 x_3_13 x_3_14 x_3_15 x_4_5 x_4_7 x_4_8 x_4_9 x_4_12 x_4_14 x_4_16
 x_4_17 x_4_19 x_5_6 x_5_7 x_5_8 x_5_9 x_5_12 x_5_13 x_5_14 x_5_15 x_5_16
 x_5_17 x_5_18 x_5_19 x_6_7 x_6_8 x_6_10 x_6_12 x_6_13 x_6_17 x_6_19 x_7_14
 x_7_15 x_7_19 x_8_9 x_8_12 x_8_14 x_8_16 x_8_19 x_9_11 x_9_14 x_9_16
 x_9_18 x_10_12 x_10_15 x_10_18 x_10_19 x_11_14 x_11_15 x_11_16 x_12_13
 x_12_14 x_13_14 x_14_15 x_14_17 x_14_19 x_15_17 x_15_18 x_16_17 x_16_19
 x_17_19 x_18_6
End
